Optimal - objective value -3180.00000000
      7 x_7                    1                       0
     39 x_39                   1                      -1
     44 x_44                   1                       0
     50 x_50                   1                       0
     55 x_55                   1                       0
    121 x_121                  1                       0
    140 x_140                  1         -5.68421052631578
    183 x_183                  1                     -40
    218 x_218                  1                       0
    248 x_248                  1         -20.2105263157895
    291 x_291                  1                     -40
    329 x_329                  1                       0
    382 x_382                  1                       0
    401 x_401                  1                       0
    426 x_426                  1                     -20
    530 x_530                  1                       0
    579 x_579                  1                       0
    600 x_600                  1                       0
    603 x_603                  1                       0
    643 x_643                  1         41.6842105263158
    763 x_763                  1                       0
    765 x_765                  1         -31.6315789473684
    776 x_776                  1         2.78947368421052
    845 x_845                  1         21.3157894736842
    847 x_847                  1         84.1842105263158
    886 x_886                  1                     -41
    899 x_899                  1         -23.3157894736842
    906 x_906                  1                       0
    964 x_964                  1                       0
    968 x_968                  1                       0
   1024 x_1024                 1                       0
   1038 x_1038                 1                       0
   1210 x_1210                 1                       0
   1261 x_1261                 1                      78
   1310 x_1310                 1                       0
   1312 x_1312                 1                       0
   1317 x_1317                 1                       0
   1348 x_1348                 1                       0
   1353 x_1353                 1                       0
   1379 x_1379                 1                     -18
   1414 x_1414                 1                       0
   1482 x_1482                 1                       0
   1531 x_1531                 1                     -96
   1572 x_1572                 1                       0
   1573 x_1573                 1                       0
   1751 x_1751                 1                       0
   1773 x_1773                 1                       0
   1793 x_1793                 1         70.8421052631579
